NAME          ClpDefau
ROWS
 N  OBJROW
 L  R_144_0
 L  R_144_1
 L  R_144_2
 L  R_144_3
 L  R_144_4
 L  R_144_5
 L  R_144_6
 L  R_144_7
 L  R_144_8
 L  R_144_9
 L  R_144_10
 L  R_144_11
 L  R_144_12
 L  R_144_13
 L  R_144_14
 L  R_144_15
COLUMNS
    x_0       OBJROW     -8.           R_144_2   3.          
    x_1       OBJROW     -12.          R_144_2   3.          
    x_1       R_144_4   6.             R_144_5   9.          
    x_1       R_144_9   8.          
    x_2       OBJROW     -11.          R_144_2   7.          
    x_3       OBJROW     -47.          R_144_5   10.         
    x_4       OBJROW     -22.          R_144_4   6.          
    x_4       R_144_7   2.             R_144_8   1.          
    x_4       R_144_12  9.             R_144_13  5.          
    x_5       OBJROW     -95.          R_144_3   6.          
    x_5       R_144_6   2.             R_144_8   1.          
    x_5       R_144_10  3.             R_144_13  10.         
    x_5       R_144_14  4.             R_144_15  1.          
    x_6       OBJROW     -86.          R_144_0   10.         
    x_6       R_144_8   5.          
    x_7       OBJROW     -40.          R_144_0   8.          
RHS
    RHS       R_144_0   4.             R_144_1   4.          
    RHS       R_144_2   4.             R_144_3   3.          
    RHS       R_144_4   9.             R_144_5   5.          
    RHS       R_144_6   10.            R_144_7   2.          
    RHS       R_144_8   5.             R_144_9   5.          
    RHS       R_144_10  9.             R_144_11  3.          
    RHS       R_144_12  6.             R_144_13  3.          
    RHS       R_144_14  5.             R_144_15  7.          
BOUNDS
 UI BOUND     x_0       100.        
 UI BOUND     x_1       100.        
 UI BOUND     x_2       100.        
 UI BOUND     x_3       100.        
 UI BOUND     x_4       100.        
 UI BOUND     x_5       100.        
 UI BOUND     x_6       100.        
 UI BOUND     x_7       100.        
ENDATA
